NAME          
ROWS
 N  OBJ
 L  c1
 L  c2
COLUMNS
    MARKER    'MARKER'                 'INTORG'
    x[1]      c1        739
    x[1]      c2        84
    x[1]      OBJ       -704
    x[2]      c1        87
    x[2]      c2        491
    x[2]      OBJ       -51
    x[3]      c1        974
    x[3]      c2        285
    x[3]      OBJ       -201
    x[4]      c1        519
    x[4]      c2        301
    x[4]      OBJ       -631
    x[5]      c1        454
    x[5]      c2        304
    x[5]      OBJ       -977
    x[6]      c1        97
    x[6]      c2        682
    x[6]      OBJ       -963
    x[7]      c1        147
    x[7]      c2        467
    x[7]      OBJ       -539
    x[8]      c1        717
    x[8]      c2        929
    x[8]      OBJ       -4
    x[9]      c1        366
    x[9]      c2        290
    x[9]      OBJ       -593
    x[10]     c1        150
    x[10]     c2        568
    x[10]     OBJ       -745
    x[11]     c1        326
    x[11]     c2        170
    x[11]     OBJ       -881
    x[12]     c1        125
    x[12]     c2        66
    x[12]     OBJ       -928
    x[13]     c1        125
    x[13]     c2        831
    x[13]     OBJ       -616
    x[14]     c1        984
    x[14]     c2        740
    x[14]     OBJ       -174
    x[15]     c1        291
    x[15]     c2        323
    x[15]     OBJ       -214
    x[16]     c1        601
    x[16]     c2        168
    x[16]     OBJ       -809
    x[17]     c1        422
    x[17]     c2        916
    x[17]     OBJ       -327
    x[18]     c1        388
    x[18]     c2        954
    x[18]     OBJ       -919
    x[19]     c1        924
    x[19]     c2        948
    x[19]     OBJ       -314
    x[20]     c1        356
    x[20]     c2        932
    x[20]     OBJ       -917
RHS
    rhs       c1        4396
    rhs       c2        5224
RANGES
BOUNDS
 BV bounds    x[1]
 BV bounds    x[2]
 BV bounds    x[3]
 BV bounds    x[4]
 BV bounds    x[5]
 BV bounds    x[6]
 BV bounds    x[7]
 BV bounds    x[8]
 BV bounds    x[9]
 BV bounds    x[10]
 BV bounds    x[11]
 BV bounds    x[12]
 BV bounds    x[13]
 BV bounds    x[14]
 BV bounds    x[15]
 BV bounds    x[16]
 BV bounds    x[17]
 BV bounds    x[18]
 BV bounds    x[19]
 BV bounds    x[20]
ENDATA
